
Gurobi 11.0.1 (win64) logging started Wed May 15 14:49:38 2024

Set parameter LogFile to value "output/solver_log6.txt"
Gurobi Optimizer version 11.0.1 build v11.0.1rc0 (win64 - Windows 11.0 (22631.2))

CPU model: 11th Gen Intel(R) Core(TM) i7-1165G7 @ 2.80GHz, instruction set [SSE2|AVX|AVX2|AVX512]
Thread count: 4 physical cores, 8 logical processors, using up to 8 threads

Optimize a model with 2634 rows, 633 columns and 50065 nonzeros
Model fingerprint: 0xe46556e4
Variable types: 248 continuous, 385 integer (385 binary)
Coefficient statistics:
  Matrix range     [4e-01, 1e+05]
  Objective range  [1e+00, 1e+02]
  Bounds range     [1e+00, 1e+00]
  RHS range        [1e-02, 1e+05]

User MIP start produced solution with objective 39777.9 (0.01s)
User MIP start produced solution with objective 39777.9 (0.01s)
Loaded user MIP start with objective 39777.9

Presolve removed 241 rows and 198 columns
Presolve time: 0.06s
Presolved: 2393 rows, 435 columns, 47130 nonzeros
Variable types: 234 continuous, 201 integer (197 binary)

Root relaxation: objective 4.800621e+04, 767 iterations, 0.05 seconds (0.09 work units)

    Nodes    |    Current Node    |     Objective Bounds      |     Work
 Expl Unexpl |  Obj  Depth IntInf | Incumbent    BestBd   Gap | It/Node Time

     0     0 48006.2057    0   22 39777.8778 48006.2057  20.7%     -    0s
     0     0 46888.2979    0   45 39777.8778 46888.2979  17.9%     -    0s
     0     0 46849.1017    0   45 39777.8778 46849.1017  17.8%     -    0s
     0     0 46849.1017    0   37 39777.8778 46849.1017  17.8%     -    0s
     0     0 46813.7589    0   46 39777.8778 46813.7589  17.7%     -    0s
     0     0 46742.3148    0   37 39777.8778 46742.3148  17.5%     -    0s
     0     0 46742.3148    0   38 39777.8778 46742.3148  17.5%     -    0s
     0     0 46540.2583    0   40 39777.8778 46540.2583  17.0%     -    0s
     0     0 45021.8057    0   49 39777.8778 45021.8057  13.2%     -    0s
     0     0 44929.9232    0   47 39777.8778 44929.9232  13.0%     -    0s
     0     0 44929.5819    0   54 39777.8778 44929.5819  13.0%     -    0s
     0     0 44459.1779    0   51 39777.8778 44459.1779  11.8%     -    1s
     0     0 44436.3777    0   40 39777.8778 44436.3777  11.7%     -    1s
     0     0 43984.2074    0   55 39777.8778 43984.2074  10.6%     -    1s
     0     0 43954.8809    0   56 39777.8778 43954.8809  10.5%     -    1s
     0     0 43954.8809    0   59 39777.8778 43954.8809  10.5%     -    1s
     0     0 43758.2033    0   44 39777.8778 43758.2033  10.0%     -    1s
     0     0 43670.3983    0   46 39777.8778 43670.3983  9.79%     -    1s
     0     0 43663.8009    0   45 39777.8778 43663.8009  9.77%     -    1s
     0     0 43372.6411    0   40 39777.8778 43372.6411  9.04%     -    1s
     0     0 43138.6523    0   41 39777.8778 43138.6523  8.45%     -    1s
     0     0 42998.2293    0   42 39777.8778 42998.2293  8.10%     -    2s
     0     0 42998.2293    0   37 39777.8778 42998.2293  8.10%     -    2s
     0     2 42998.2293    0   37 39777.8778 42998.2293  8.10%     -    2s
H  160   116                    39779.100538 42998.2293  8.09%   174    3s
*  383   214              65    39787.705534 42998.2293  8.07%  80.9    3s
*  384   214              66    39788.047692 42998.2293  8.07%  80.9    3s
*  602   245              52    39791.893143 39794.7503  0.01%  62.1    4s

Cutting planes:
  Implied bound: 1
  MIR: 23
  Relax-and-lift: 1

Explored 654 nodes (49658 simplex iterations) in 4.42 seconds (9.47 work units)
Thread count was 8 (of 8 available processors)

Solution count 6: 39791.9 39791.9 39788 ... 39777.9

Optimal solution found (tolerance 1.00e-04)
Best objective 3.979189314319e+04, best bound 3.979475025137e+04, gap 0.0072%
